flow=[(1,6,1)(5,1,0)(5,2,0)(5,4,0)(5,6,9)(5,7,0)(5,8,0)(5,9,0)(5,10,0)(5,11,0)(5,12,0)(5,13,0)(6,1,2)(6,5,4)(6,7,1)(6,10,5)(6,11,6)(8,9,1)(10,6,4)(11,6,3)(11,9,2)(11,10,5)(11,12,9)(12,5,3)(12,6,0)(12,7,0)(12,10,0)(12,13,0)];
